p tw 288 1024
1 33
2 34
3 35
4 36
5 37
6 38
7 39
8 40
9 41
10 42
11 43
12 44
13 45
14 46
15 47
16 48
17 49
18 50
19 51
20 52
21 53
22 54
23 55
24 56
25 57
26 58
27 59
28 60
29 61
30 62
31 63
32 64
33 71
33 74
33 118
33 122
33 123
34 101
34 108
34 145
34 155
34 157
35 66
35 94
35 95
35 96
35 97
36 74
36 75
36 76
36 77
36 78
37 65
37 70
37 71
37 72
37 73
38 80
38 124
38 128
38 137
38 139
39 75
39 82
39 112
39 150
39 151
40 84
40 85
40 86
40 87
40 88
41 127
41 130
41 134
41 135
41 136
42 103
42 130
42 131
42 132
42 133
43 65
43 66
43 67
43 68
43 69
44 110
44 114
44 115
44 116
44 117
45 81
45 95
45 119
45 147
45 149
46 72
46 115
46 122
46 147
46 148
47 111
47 118
47 119
47 120
47 121
48 98
48 99
48 100
48 101
48 102
49 90
49 104
49 131
49 137
49 138
50 67
50 110
50 111
50 112
50 113
51 92
51 99
51 144
51 152
51 154
52 79
52 107
52 127
52 128
52 129
53 76
53 91
53 96
53 152
53 153
54 105
54 134
54 140
54 142
54 143
55 85
55 89
55 124
55 125
55 126
56 70
56 103
56 104
56 105
56 106
57 77
57 87
57 150
57 158
57 160
58 98
58 114
58 125
58 140
58 141
59 79
59 80
59 81
59 82
59 83
60 86
60 120
60 135
60 158
60 159
61 89
61 90
61 91
61 92
61 93
62 68
62 142
62 144
62 145
62 146
63 84
63 94
63 107
63 108
63 109
64 100
64 116
64 132
64 155
64 156
65 66
65 67
65 68
65 69
65 70
65 71
65 72
65 73
66 67
66 68
66 69
66 94
66 95
66 96
66 97
67 68
67 69
67 110
67 111
67 112
67 113
68 69
68 142
68 144
68 145
68 146
69 161
69 162
69 163
69 164
69 165
70 71
70 72
70 73
70 103
70 104
70 105
70 106
71 72
71 73
71 74
71 118
71 122
71 123
72 73
72 115
72 122
72 147
72 148
73 161
73 166
73 167
73 168
73 169
74 75
74 76
74 77
74 78
74 118
74 122
74 123
75 76
75 77
75 78
75 82
75 112
75 150
75 151
76 77
76 78
76 91
76 96
76 152
76 153
77 78
77 87
77 150
77 158
77 160
78 170
78 171
78 172
78 173
78 174
79 80
79 81
79 82
79 83
79 107
79 127
79 128
79 129
80 81
80 82
80 83
80 124
80 128
80 137
80 139
81 82
81 83
81 95
81 119
81 147
81 149
82 83
82 112
82 150
82 151
83 175
83 176
83 177
83 178
83 179
84 85
84 86
84 87
84 88
84 94
84 107
84 108
84 109
85 86
85 87
85 88
85 89
85 124
85 125
85 126
86 87
86 88
86 120
86 135
86 158
86 159
87 88
87 150
87 158
87 160
88 180
88 181
88 182
88 183
88 184
89 90
89 91
89 92
89 93
89 124
89 125
89 126
90 91
90 92
90 93
90 104
90 131
90 137
90 138
91 92
91 93
91 96
91 152
91 153
92 93
92 99
92 144
92 152
92 154
93 185
93 186
93 187
93 188
93 189
94 95
94 96
94 97
94 107
94 108
94 109
95 96
95 97
95 119
95 147
95 149
96 97
96 152
96 153
97 162
97 190
97 191
97 192
97 193
98 99
98 100
98 101
98 102
98 114
98 125
98 140
98 141
99 100
99 101
99 102
99 144
99 152
99 154
100 101
100 102
100 116
100 132
100 155
100 156
101 102
101 108
101 145
101 155
101 157
102 194
102 195
102 196
102 197
102 198
103 104
103 105
103 106
103 130
103 131
103 132
103 133
104 105
104 106
104 131
104 137
104 138
105 106
105 134
105 140
105 142
105 143
106 166
106 199
106 200
106 201
106 202
107 108
107 109
107 127
107 128
107 129
108 109
108 145
108 155
108 157
109 180
109 190
109 203
109 204
109 205
110 111
110 112
110 113
110 114
110 115
110 116
110 117
111 112
111 113
111 118
111 119
111 120
111 121
112 113
112 150
112 151
113 163
113 206
113 207
113 208
113 209
114 115
114 116
114 117
114 125
114 140
114 141
115 116
115 117
115 122
115 147
115 148
116 117
116 132
116 155
116 156
117 206
117 210
117 211
117 212
117 213
118 119
118 120
118 121
118 122
118 123
119 120
119 121
119 147
119 149
120 121
120 135
120 158
120 159
121 207
121 214
121 215
121 216
121 217
122 123
122 147
122 148
123 167
123 170
123 214
123 218
123 219
124 125
124 126
124 128
124 137
124 139
125 126
125 140
125 141
126 181
126 185
126 220
126 221
126 222
127 128
127 129
127 130
127 134
127 135
127 136
128 129
128 137
128 139
129 175
129 203
129 223
129 224
129 225
130 131
130 132
130 133
130 134
130 135
130 136
131 132
131 133
131 137
131 138
132 133
132 155
132 156
133 199
133 226
133 227
133 228
133 229
134 135
134 136
134 140
134 142
134 143
135 136
135 158
135 159
136 223
136 226
136 230
136 231
136 232
137 138
137 139
138 186
138 200
138 227
138 233
138 234
139 176
139 220
139 224
139 233
139 235
140 141
140 142
140 143
141 194
141 210
141 221
141 236
141 237
142 143
142 144
142 145
142 146
143 201
143 230
143 236
143 238
143 239
144 145
144 146
144 152
144 154
145 146
145 155
145 157
146 164
146 238
146 240
146 241
146 242
147 148
147 149
148 168
148 211
148 218
148 243
148 244
149 177
149 191
149 215
149 243
149 245
150 151
150 158
150 160
151 171
151 178
151 208
151 246
151 247
152 153
152 154
153 172
153 187
153 192
153 248
153 249
154 188
154 195
154 240
154 248
154 250
155 156
155 157
156 196
156 212
156 228
156 251
156 252
157 197
157 204
157 241
157 251
157 253
158 159
158 160
159 182
159 216
159 231
159 254
159 255
160 173
160 183
160 246
160 254
160 256
161 162
161 163
161 164
161 165
161 166
161 167
161 168
161 169
162 163
162 164
162 165
162 190
162 191
162 192
162 193
163 164
163 165
163 206
163 207
163 208
163 209
164 165
164 238
164 240
164 241
164 242
165 278
166 167
166 168
166 169
166 199
166 200
166 201
166 202
167 168
167 169
167 170
167 214
167 218
167 219
168 169
168 211
168 218
168 243
168 244
169 284
170 171
170 172
170 173
170 174
170 214
170 218
170 219
171 172
171 173
171 174
171 178
171 208
171 246
171 247
172 173
172 174
172 187
172 192
172 248
172 249
173 174
173 183
173 246
173 254
173 256
174 285
175 176
175 177
175 178
175 179
175 203
175 223
175 224
175 225
176 177
176 178
176 179
176 220
176 224
176 233
176 235
177 178
177 179
177 191
177 215
177 243
177 245
178 179
178 208
178 246
178 247
179 262
180 181
180 182
180 183
180 184
180 190
180 203
180 204
180 205
181 182
181 183
181 184
181 185
181 220
181 221
181 222
182 183
182 184
182 216
182 231
182 254
182 255
183 184
183 246
183 254
183 256
184 281
185 186
185 187
185 188
185 189
185 220
185 221
185 222
186 187
186 188
186 189
186 200
186 227
186 233
186 234
187 188
187 189
187 192
187 248
187 249
188 189
188 195
188 240
188 248
188 250
189 260
190 191
190 192
190 193
190 203
190 204
190 205
191 192
191 193
191 215
191 243
191 245
192 193
192 248
192 249
193 286
194 195
194 196
194 197
194 198
194 210
194 221
194 236
194 237
195 196
195 197
195 198
195 240
195 248
195 250
196 197
196 198
196 212
196 228
196 251
196 252
197 198
197 204
197 241
197 251
197 253
198 273
199 200
199 201
199 202
199 226
199 227
199 228
199 229
200 201
200 202
200 227
200 233
200 234
201 202
201 230
201 236
201 238
201 239
202 265
203 204
203 205
203 223
203 224
203 225
204 205
204 241
204 251
204 253
205 258
206 207
206 208
206 209
206 210
206 211
206 212
206 213
207 208
207 209
207 214
207 215
207 216
207 217
208 209
208 246
208 247
209 271
210 211
210 212
210 213
210 221
210 236
210 237
211 212
211 213
211 218
211 243
211 244
212 213
212 228
212 251
212 252
213 277
214 215
214 216
214 217
214 218
214 219
215 216
215 217
215 243
215 245
216 217
216 231
216 254
216 255
217 274
218 219
218 243
218 244
219 288
220 221
220 222
220 224
220 233
220 235
221 222
221 236
221 237
222 266
223 224
223 225
223 226
223 230
223 231
223 232
224 225
224 233
224 235
225 269
226 227
226 228
226 229
226 230
226 231
226 232
227 228
227 229
227 233
227 234
228 229
228 251
228 252
229 279
230 231
230 232
230 236
230 238
230 239
231 232
231 254
231 255
232 280
233 234
233 235
234 272
235 283
236 237
236 238
236 239
237 263
238 239
238 240
238 241
238 242
239 267
240 241
240 242
240 248
240 250
241 242
241 251
241 253
242 259
243 244
243 245
244 275
245 276
246 247
246 254
246 256
247 282
248 249
248 250
249 268
250 270
251 252
251 253
252 257
253 287
254 255
254 256
255 261
256 264
